fuel/fuel_planner/utils/lkh_tsp_solver/resource/single.tsp
NAME : single
TYPE : ATSP
DIMENSION : 7
EDGE_WEIGHT_TYPE : EXPLICIT
EDGE_WEIGHT_FORMAT : FULL_MATRIX
EDGE_WEIGHT_SECTION
0 330 474 265 406 173 334 
0 0 88 135 295 102 158 
0 88 0 223 207 190 70 
0 135 223 0 168 75 293 
0 295 207 168 0 202 137 
0 102 190 75 202 0 260 
0 158 70 293 137 260 0 
EOF